PreSolver/instances/dataset_final/sat_subsetcard_8_12_22665.cnf
c description: Subset cardinality formula for bipartite_random_left_regular(4,2,2)
c generator: CNFgen (0.9.0)
c copyright: (C) 2012-2020 Massimo Lauria <massimo.lauria@uniroma1.it>
c url: https://massimolauria.net/cnfgen
c
p cnf 8 12
1 2 0
3 4 0
5 6 0
7 8 0
-1 -3 -5 0
-1 -3 -7 0
-1 -5 -7 0
-3 -5 -7 0
-2 -4 -6 0
-2 -4 -8 0
-2 -6 -8 0
-4 -6 -8 0